db/data/118215158179472924607137642653031512.z3.out
-------------------
2500.279716394
